Sun 20 May 09:12:18 CEST 2018
CPXPARAM_TimeLimit                               45
CPXPARAM_Threads                                 4
CPXPARAM_MIP_Strategy_CallbackReducedLP          0
Tried aggregator 3 times.
MIP Presolve eliminated 2308 rows and 1652 columns.
MIP Presolve modified 1740 coefficients.
Aggregator did 2932 substitutions.
Reduced MIP has 5872 rows, 5405 columns, and 14576 nonzeros.
Reduced MIP has 4716 binaries, 9 generals, 0 SOSs, and 980 indicators.
Presolve time = 0.04 sec. (62.83 ticks)
Probing time = 0.10 sec. (36.60 ticks)
Tried aggregator 3 times.
Aggregator did 2684 substitutions.
Reduced MIP has 3188 rows, 2721 columns, and 9208 nonzeros.
Reduced MIP has 2032 binaries, 689 generals, 0 SOSs, and 980 indicators.
Presolve time = 0.02 sec. (18.87 ticks)
Probing time = 0.06 sec. (49.53 ticks)
Tried aggregator 1 time.
Reduced MIP has 3188 rows, 2721 columns, and 9208 nonzeros.
Reduced MIP has 2032 binaries, 689 generals, 0 SOSs, and 980 indicators.
Presolve time = 0.01 sec. (8.83 ticks)
Probing time = 0.01 sec. (4.24 ticks)
Clique table members: 58976.
MIP emphasis: balance optimality and feasibility.
MIP search method: dynamic search.
Parallel mode: deterministic, using up to 4 threads.
Root relaxation solution time = 0.01 sec. (10.99 ticks)

        Nodes                                         Cuts/
   Node  Left     Objective  IInf  Best Integer    Best Bound    ItCnt     Gap

      0     0        0.0000  1087                      0.0000      271         
*     0+    0                           15.0000        0.0000           100.00%
      0     0        0.0000   939       15.0000  Cliques: 897      463   86.67%
*     0+    0                            5.0000        2.0000            60.00%
      0     0        0.0000  1282        5.0000  Cliques: 897      682   60.00%
      0     0        0.0000   796        5.0000  Cliques: 897     1032   60.00%

Repeating presolve.
Tried aggregator 3 times.
MIP Presolve eliminated 2447 rows and 1727 columns.
MIP Presolve modified 4 coefficients.
Aggregator did 5 substitutions.
Reduced MIP has 800 rows, 649 columns, and 2216 nonzeros.
Reduced MIP has 488 binaries, 161 generals, 0 SOSs, and 148 indicators.
Presolve time = 0.01 sec. (8.90 ticks)
Probing time = 0.00 sec. (3.34 ticks)
Tried aggregator 2 times.
MIP Presolve eliminated 2 rows and 2 columns.
Aggregator did 20 substitutions.
Reduced MIP has 778 rows, 627 columns, and 2172 nonzeros.
Reduced MIP has 466 binaries, 161 generals, 0 SOSs, and 148 indicators.
Presolve time = 0.00 sec. (2.28 ticks)
Probing time = 0.00 sec. (3.26 ticks)
Tried aggregator 1 time.
Reduced MIP has 778 rows, 627 columns, and 2172 nonzeros.
Reduced MIP has 466 binaries, 161 generals, 0 SOSs, and 148 indicators.
Presolve time = 0.00 sec. (2.05 ticks)
Represolve time = 0.07 sec. (137.67 ticks)
Probing time = 0.00 sec. (2.42 ticks)
Clique table members: 1524.
MIP emphasis: balance optimality and feasibility.
MIP search method: dynamic search.
Parallel mode: deterministic, using up to 4 threads.
Root relaxation solution time = 0.01 sec. (11.26 ticks)

        Nodes                                         Cuts/
   Node  Left     Objective  IInf  Best Integer    Best Bound    ItCnt     Gap

*     0+    0                            5.0000        2.0000            60.00%
      0     0        0.2000   305        5.0000        2.0000     1197   60.00%
      0     2        0.2000   305        5.0000        2.0000     1197   60.00%
Elapsed time = 2.83 sec. (3118.09 ticks, tree = 0.01 MB, solutions = 2)
*    28+   10                            4.0000        2.0000            50.00%

Implied bound cuts applied:  46

Root node processing (before b&c):
  Real time             =    2.83 sec. (3118.10 ticks)
Parallel b&c, 4 threads:
  Real time             =    0.02 sec. (13.66 ticks)
  Sync time (average)   =    0.00 sec.
  Wait time (average)   =    0.00 sec.
                          ------------
Total (root+branch&cut) =    2.85 sec. (3131.77 ticks)
   | W
 L | 0 1 2 3 4 5 
----------------
 0 | 6 6 3 3 4 4 
 1 | 8 8 3 3 4 4 
 2 | 1 1 2 2 7 7 
 3 | 1 1 2 2 5 5 
 4 | . . . . . . 
 5 | . . . . . . 
 6 | . . . . . . 
 7 | . . . . . . 
 8 | . . . . . . 
 9 | . . . . . . 
10 | . . . . . . 
11 | . . . . . . 
12 | . . . . . . 
13 | . . . . . . 
14 | . . . . . . 
15 | . . . . . . 

Boxes' corners:      (w,l)
    Box 1 is at 
        top left     (0,2)
        bottom right (1,3)

    Box 2 is at 
        top left     (2,2)
        bottom right (3,3)

    Box 3 is at 
        top left     (2,0)
        bottom right (3,1)

    Box 4 is at 
        top left     (4,0)
        bottom right (5,1)

    Box 5 is at 
        top left     (4,3)
        bottom right (5,3)

    Box 6 is at 
        top left     (0,0)
        bottom right (1,0)

    Box 7 is at 
        top left     (4,2)
        bottom right (5,2)

    Box 8 is at 
        top left     (0,1)
        bottom right (1,1)

    Roll length used: 4
In 7.91 seconds
